NAME: ClusterId_0 
COMMENT : (Gillet and Johnson) 
TYPE : CVRP 
DIMENSION: 14 
EDGE_WEIGHT_TYPE: EUC_2D 
CAPACITY: 500 
NODE_COORD_SECTION 
1 -33 33 
70 -18 34 
178 -16 36 
4 0 14 
238 -13 38 
191 -16 16 
9 -12 10 
124 -4 17 
119 -3 17 
164 -28 39 
225 -26 43 
63 -12 42 
250 -14 44 
158 -17 49 
83 -20 51 
DEMAND_SECTION 
1 1000
70 34
178 36
4 14
238 38
191 16
9 10
124 17
119 17
164 39
225 43
63 42
250 44
158 49
83 51
DEPOT_SECTION 
1
 -1
EOF